(set-info :origin "SVCOMP13 benchmarks generated by Arie Gurfinkel")
(set-info :status unsat)
(set-logic HORN)
(declare-fun cp-rel-bb1.i.i6.i.i.i.i.i.i.i () Bool)
(declare-fun cp-rel-entry () Bool)
(declare-fun cp-rel-bb.i
             (Real
              Real
              Real
              Real
              Real
              Real
              Real
              Real
              Real
              Real
              Real
              Real
              Real
              Real
              Real
              Real
              Real
              Real)
             Bool)
(declare-fun cp-rel-__UFO__0
             (Real
              Real
              Real
              Real
              Real
              Real
              Real
              Real
              Real
              Real
              Real
              Real
              Real
              Real
              Real
              Real
              Real
              Real
              Real
              Bool
              Bool)
             Bool)
(assert |cp-rel-entry|)
(assert (forall ((?A Real) (?B Real) (?C Real) (?D Real) (?E Real) (?F Real) (?G Real) (?H Real) (?I Real) (?J Real) (?K Real) (?L Real) (?M Real) (?N Real) (?O Real) (?P Real) (?Q Real) (?R Real) (?S Bool) )(let (($x261262 (|cp-rel-bb.i| ?A ?B ?C ?D ?E ?F ?G ?H ?I ?J ?K ?L ?M ?N ?O ?P ?Q ?R)))
(let (($x108930 (= ?S true)))
(let (($x220615 (and |cp-rel-entry| (<= ?R 0.0) (>= ?Q 0.0) (<= ?Q 0.0) (>= ?P 0.0) (<= ?P 0.0) (>= ?O 0.0) (<= ?O 0.0) (>= ?N 456.0) (<= ?N 456.0) (>= ?M 123.0) (<= ?M 123.0) (>= ?L 0.0) (<= ?L 0.0) (>= ?K 0.0) (<= ?K 0.0) (>= ?J 0.0) (<= ?J 0.0) (>= ?I 0.0) (<= ?I 0.0) (>= ?H 0.0) (<= ?H 0.0) (>= ?G 0.0) (<= ?G 0.0) (>= ?F 0.0) (<= ?F 0.0) (>= ?E 0.0) (<= ?E 0.0) (>= ?D 0.0) (<= ?D 0.0) (>= ?C 0.0) (<= ?C 0.0) (>= ?B 0.0) (<= ?B 0.0) (>= ?A 0.0) (<= ?A 0.0) $x108930 (>= ?R 0.0))))
(=> $x220615 $x261262)))))
)
(assert (forall ((?A Real) (?B Real) (?C Real) (?D Real) (?E Real) (?F Real) (?G Real) (?H Real) (?I Real) (?J Real) (?K Real) (?L Real) (?M Real) (?N Real) (?O Real) (?P Real) (?Q Real) (?R Real) (?S Real) (?T Real) (?U Real) (?V Real) (?W Real) (?X Real) (?Y Real) (?Z Real) (?A1 Real) (?B1 Real) (?C1 Real) (?D1 Real) (?E1 Real) (?F1 Real) (?G1 Real) (?H1 Real) (?I1 Real) (?J1 Real) (?K1 Bool) (?L1 Bool) (?M1 Bool) (?N1 Bool) (?O1 Bool) (?P1 Bool) (?Q1 Bool) (?R1 Bool) (?S1 Bool) (?T1 Bool) (?U1 Bool) (?V1 Bool) (?W1 Bool) (?X1 Bool) (?Y1 Bool) (?Z1 Bool) (?A2 Bool) (?B2 Bool) (?C2 Bool) (?D2 Bool) (?E2 Bool) (?F2 Bool) (?G2 Bool) (?H2 Bool) (?I2 Bool) (?J2 Bool) (?K2 Bool) (?L2 Bool) (?M2 Bool) (?N2 Bool) (?O2 Bool) (?P2 Bool) (?Q2 Bool) (?R2 Bool) (?S2 Bool) (?T2 Bool) (?U2 Bool) (?V2 Bool) (?W2 Bool) (?X2 Bool) (?Y2 Bool) (?Z2 Bool) (?A3 Bool) (?B3 Bool) (?C3 Bool) (?D3 Bool) (?E3 Bool) (?F3 Bool) (?G3 Bool) (?H3 Bool) (?I3 Bool) (?J3 Bool) (?K3 Bool) (?L3 Bool) (?M3 Bool) (?N3 Bool) (?O3 Bool) (?P3 Bool) (?Q3 Bool) (?R3 Bool) (?S3 Bool) (?T3 Bool) (?U3 Bool) (?V3 Bool) (?W3 Bool) (?X3 Bool) (?Y3 Bool) (?Z3 Bool) (?A4 Bool) (?B4 Bool) (?C4 Bool) (?D4 Bool) (?E4 Bool) (?F4 Bool) (?G4 Bool) (?H4 Bool) (?I4 Bool) (?J4 Bool) (?K4 Bool) (?L4 Bool) (?M4 Real) (?N4 Real) (?O4 Real) (?P4 Real) (?Q4 Real) (?R4 Real) (?S4 Real) (?T4 Real) (?U4 Real) (?V4 Real) (?W4 Real) (?X4 Real) )(let (($x108385 (|cp-rel-bb.i| ?S ?T ?U ?V ?W ?X ?Y ?Z ?A1 ?B1 ?C1 ?D1 ?E1 ?F1 ?G1 ?H1 ?I1 ?J1)))
(let (($x45346 (>= ?J1 ?R)))
(let (($x302229 (<= ?J1 ?R)))
(let (($x308988 (>= ?H1 ?P)))
(let (($x247203 (<= ?H1 ?P)))
(let (($x137163 (>= ?F1 ?N)))
(let (($x340924 (<= ?F1 ?N)))
(let (($x289688 (>= ?E1 ?M)))
(let (($x727478 (<= ?E1 ?M)))
(let (($x350566 (>= ?C1 ?K)))
(let (($x594054 (<= ?C1 ?K)))
(let (($x566181 (>= ?B1 ?J)))
(let (($x625149 (<= ?B1 ?J)))
(let (($x426171 (>= ?A1 ?I)))
(let (($x848806 (<= ?A1 ?I)))
(let (($x531683 (>= ?Z ?H)))
(let (($x111062 (<= ?Z ?H)))
(let (($x802861 (>= ?Y ?G)))
(let (($x177218 (<= ?Y ?G)))
(let (($x921293 (>= ?X ?F)))
(let (($x896623 (<= ?X ?F)))
(let (($x479359 (>= ?W ?E)))
(let (($x430331 (<= ?W ?E)))
(let (($x246838 (>= ?V ?D)))
(let (($x431621 (<= ?V ?D)))
(let (($x891206 (>= ?U ?C)))
(let (($x574730 (<= ?U ?C)))
(let (($x234477 (>= ?T ?B)))
(let (($x802605 (<= ?T ?B)))
(let (($x240212 (>= ?S ?M4)))
(let (($x838981 (<= ?S ?M4)))
(let (($x464605 (and ?V1 $x838981 $x240212 $x802605 $x234477 $x574730 $x891206 $x431621 $x246838 $x430331 $x479359 $x896623 $x921293 $x177218 $x802861 $x111062 $x531683 $x848806 $x426171 $x625149 $x566181 $x594054 $x350566 (<= ?D1 1.0) (>= ?D1 1.0) $x727478 $x289688 $x340924 $x137163 (<= ?G1 2.0) (>= ?G1 2.0) $x247203 $x308988 (<= ?I1 456.0) (>= ?I1 456.0) $x302229 $x45346)))
(let (($x26442 (>= ?I1 ?Q)))
(let (($x891452 (<= ?I1 ?Q)))
(let (($x545052 (>= ?G1 ?O)))
(let (($x327997 (<= ?G1 ?O)))
(let (($x649679 (>= ?D1 ?L)))
(let (($x840267 (<= ?D1 ?L)))
(let (($x487958 (not ?C2)))
(let (($x871815 (and ?X1 $x487958 $x838981 $x240212 $x802605 $x234477 $x574730 $x891206 $x431621 $x246838 $x430331 $x479359 $x896623 $x921293 $x177218 $x802861 $x111062 $x531683 $x848806 $x426171 $x625149 $x566181 (<= ?C1 1.0) (>= ?C1 1.0) $x840267 $x649679 $x727478 $x289688 $x340924 $x137163 $x327997 $x545052 $x247203 $x308988 $x891452 $x26442 $x302229 $x45346)))
(let (($x53085 (not ?J2)))
(let (($x369580 (and ?E2 $x53085 $x838981 $x240212 $x802605 $x234477 $x574730 $x891206 $x431621 $x246838 $x430331 $x479359 $x896623 $x921293 $x177218 $x802861 $x111062 $x531683 $x848806 $x426171 (<= ?B1 1.0) (>= ?B1 1.0) $x594054 $x350566 $x840267 $x649679 $x727478 $x289688 (<= ?F1 0.0) (>= ?F1 0.0) $x327997 $x545052 $x247203 $x308988 $x891452 $x26442 $x302229 $x45346)))
(let (($x173831 (not ?Q2)))
(let (($x731665 (and ?L2 $x173831 $x838981 $x240212 $x802605 $x234477 $x574730 $x891206 $x431621 $x246838 $x430331 $x479359 $x896623 $x921293 $x177218 $x802861 $x111062 $x531683 (<= ?A1 1.0) (>= ?A1 1.0) $x625149 $x566181 $x594054 $x350566 $x840267 $x649679 $x727478 $x289688 $x340924 $x137163 $x327997 $x545052 (<= ?H1 1.0) (>= ?H1 1.0) $x891452 $x26442 (<= ?J1 123.0) (>= ?J1 123.0))))
(let (($x503982 (and ?S2 (not ?X2) $x838981 $x240212 $x802605 $x234477 $x574730 $x891206 $x431621 $x246838 $x430331 $x479359 $x896623 $x921293 $x177218 $x802861 (<= ?Z 1.0) (>= ?Z 1.0) $x848806 $x426171 $x625149 $x566181 $x594054 $x350566 $x840267 $x649679 $x727478 $x289688 $x340924 $x137163 $x327997 $x545052 $x247203 $x308988 $x891452 $x26442 $x302229 $x45346)))
(let (($x374785 (and ?Z2 (not ?E3) $x838981 $x240212 $x802605 $x234477 $x574730 $x891206 $x431621 $x246838 $x430331 $x479359 $x896623 $x921293 (<= ?Y 1.0) (>= ?Y 1.0) $x111062 $x531683 $x848806 $x426171 $x625149 $x566181 $x594054 $x350566 $x840267 $x649679 $x727478 $x289688 $x340924 $x137163 $x327997 $x545052 $x247203 $x308988 $x891452 $x26442 $x302229 $x45346)))
(let (($x256648 (not ?L3)))
(let (($x464674 (and ?G3 $x256648 $x838981 $x240212 $x802605 $x234477 $x574730 $x891206 $x431621 $x246838 $x430331 $x479359 (<= ?X 1.0) (>= ?X 1.0) $x177218 $x802861 $x111062 $x531683 $x848806 $x426171 $x625149 $x566181 $x594054 $x350566 $x840267 $x649679 $x727478 $x289688 (<= ?F1 666.0) (>= ?F1 666.0) $x327997 $x545052 $x247203 $x308988 $x891452 $x26442 $x302229 $x45346)))
(let (($x513188 (and ?N3 (not ?S3) $x838981 $x240212 $x802605 $x234477 $x574730 $x891206 $x431621 $x246838 (<= ?W 1.0) (>= ?W 1.0) $x896623 $x921293 $x177218 $x802861 $x111062 $x531683 $x848806 $x426171 $x625149 $x566181 $x594054 $x350566 $x840267 $x649679 $x727478 $x289688 $x340924 $x137163 $x327997 $x545052 $x247203 $x308988 $x891452 $x26442 $x302229 $x45346)))
(let (($x860568 (and ?U3 (not ?Z3) $x838981 $x240212 $x802605 $x234477 $x574730 $x891206 (<= ?V 1.0) (>= ?V 1.0) $x430331 $x479359 $x896623 $x921293 $x177218 $x802861 $x111062 $x531683 $x848806 $x426171 $x625149 $x566181 $x594054 $x350566 $x840267 $x649679 $x727478 $x289688 $x340924 $x137163 $x327997 $x545052 $x247203 $x308988 $x891452 $x26442 $x302229 $x45346)))
(let (($x837990 (not ?G4)))
(let (($x646956 (and ?B4 $x837990 $x838981 $x240212 $x802605 $x234477 (<= ?U 1.0) (>= ?U 1.0) $x431621 $x246838 $x430331 $x479359 $x896623 $x921293 $x177218 $x802861 $x111062 $x531683 $x848806 $x426171 $x625149 $x566181 $x594054 $x350566 $x840267 $x649679 (<= ?E1 777.0) (>= ?E1 777.0) $x340924 $x137163 $x327997 $x545052 $x247203 $x308988 $x891452 $x26442 $x302229 $x45346)))
(let (($x240174 (not ?L4)))
(let (($x387200 (and ?I4 $x240174 $x838981 $x240212 (<= ?T 1.0) (>= ?T 1.0) $x574730 $x891206 $x431621 $x246838 $x430331 $x479359 $x896623 $x921293 $x177218 $x802861 $x111062 $x531683 $x848806 $x426171 $x625149 $x566181 $x594054 $x350566 $x840267 $x649679 $x727478 $x289688 $x340924 $x137163 $x327997 $x545052 $x247203 $x308988 $x891452 $x26442 $x302229 $x45346)))
(let (($x316581 (|cp-rel-bb.i| ?A ?B ?C ?D ?E ?F ?G ?H ?I ?J ?K ?L ?M ?N ?O ?P ?Q ?R)))
(let (($x855964 (and $x316581 (= ?K4 (= ?B 0.0)) (= ?G4 (= ?W4 0.0)) (= ?D4 (= ?C 0.0)) (= ?Z3 (= ?V4 0.0)) (= ?W3 (= ?D 0.0)) (= ?S3 (= ?U4 0.0)) (= ?P3 (= ?E 0.0)) (= ?L3 (= ?T4 0.0)) (= ?I3 (= ?F 0.0)) (= ?E3 (= ?S4 0.0)) (= ?B3 (= ?G 0.0)) (= ?X2 (= ?R4 0.0)) (= ?U2 (= ?H 0.0)) (= ?Q2 (= ?Q4 0.0)) (= ?N2 (= ?I 0.0)) (= ?J2 (= ?P4 0.0)) (= ?G2 (= ?J 0.0)) (= ?C2 (= ?O4 0.0)) (= ?Z1 (= ?K 0.0)) (= ?T1 (= ?N4 0.0)) (= ?Q1 (= ?L 0.0)) (= ?M4 (+ 1.0 ?A)) (= ?N1 (not (<= ?A 3.0))) (or $x387200 $x646956 $x860568 $x513188 $x464674 $x374785 $x503982 $x731665 $x369580 $x871815 $x464605) (or (not ?I4) ?J4) (or (not ?I4) (and ?E4 ?J4 ?K4)) (or (not ?E4) (and ?F4 (not ?H4)) (and ?H4 (not ?F4))) (or (not ?E4) (and ?B4 ?F4 ?G4) (and ?X3 ?H4 (not ?D4))) (or (not ?B4) ?C4) (or (not ?B4) (and ?X3 ?C4 ?D4)) (or (not ?X3) (and ?Y3 (not ?A4)) (and ?A4 (not ?Y3))) (or (not ?X3) (and ?U3 ?Y3 ?Z3) (and ?Q3 ?A4 (not ?W3))) (or (not ?U3) ?V3) (or (not ?U3) (and ?Q3 ?V3 ?W3)) (or (not ?Q3) (and ?R3 (not ?T3)) (and ?T3 (not ?R3))) (or (not ?Q3) (and ?N3 ?R3 ?S3) (and ?J3 ?T3 (not ?P3))) (or (not ?N3) ?O3) (or (not ?N3) (and ?J3 ?O3 ?P3)) (or (not ?J3) (and ?K3 (not ?M3)) (and ?M3 (not ?K3))) (or (not ?J3) (and ?G3 ?K3 ?L3) (and ?C3 ?M3 (not ?I3))) (or (not ?G3) ?H3) (or (not ?G3) (and ?C3 ?H3 ?I3)) (or (not ?C3) (and ?D3 (not ?F3)) (and ?F3 (not ?D3))) (or (not ?C3) (and ?Z2 ?D3 ?E3) (and ?V2 ?F3 (not ?B3))) (or (not ?Z2) ?A3) (or (not ?Z2) (and ?V2 ?A3 ?B3)) (or (not ?V2) (and ?W2 (not ?Y2)) (and ?Y2 (not ?W2))) (or (not ?V2) (and ?S2 ?W2 ?X2) (and ?O2 ?Y2 (not ?U2))) (or (not ?S2) ?T2) (or (not ?S2) (and ?O2 ?T2 ?U2)) (or (not ?O2) (and ?P2 (not ?R2)) (and ?R2 (not ?P2))) (or (not ?O2) (and ?L2 ?P2 ?Q2) (and ?H2 ?R2 (not ?N2))) (or (not ?L2) ?M2) (or (not ?L2) (and ?H2 ?M2 ?N2)) (or (not ?H2) (and ?I2 (not ?K2)) (and ?K2 (not ?I2))) (or (not ?H2) (and ?E2 ?I2 ?J2) (and ?A2 ?K2 (not ?G2))) (or (not ?E2) ?F2) (or (not ?E2) (and ?A2 ?F2 ?G2)) (or (not ?A2) (and ?B2 (not ?D2)) (and ?D2 (not ?B2))) (or (not ?A2) (and ?X1 ?B2 ?C2) (and ?R1 ?D2 (not ?Z1))) (or (not ?X1) ?Y1) (or (not ?X1) (and ?R1 ?Y1 ?Z1)) (or (not ?V1) ?W1) (or (not ?V1) (and ?O1 ?W1 (not ?T1))) (or (not ?R1) (and ?S1 (not ?U1)) (and ?U1 (not ?S1))) (or (not ?R1) (and ?O1 ?S1 ?T1) (and ?K1 ?U1 (not ?Q1))) (or (not ?O1) ?P1) (or (not ?O1) (and ?K1 ?P1 ?Q1)) (or (not ?K1) ?M1) (or (not ?K1) (and ?L1 ?M1 (not ?N1))) (= ?L4 (= ?X4 0.0)))))
(=> $x855964 $x108385))))))))))))))))))))))))))))))))))))))))))))))))))))))))))
)
(assert (forall ((?A Real) (?B Real) (?C Real) (?D Real) (?E Real) (?F Real) (?G Real) (?H Real) (?I Real) (?J Real) (?K Real) (?L Real) (?M Real) (?N Real) (?O Real) (?P Real) (?Q Real) (?R Real) (?S Bool) (?T Bool) (?U Bool) (?V Bool) (?W Bool) (?X Bool) (?Y Bool) (?Z Bool) (?A1 Bool) (?B1 Bool) (?C1 Bool) (?D1 Bool) (?E1 Bool) (?F1 Bool) (?G1 Bool) (?H1 Bool) (?I1 Bool) (?J1 Bool) (?K1 Bool) (?L1 Bool) (?M1 Bool) (?N1 Bool) (?O1 Bool) (?P1 Bool) (?Q1 Bool) (?R1 Bool) (?S1 Bool) (?T1 Bool) (?U1 Bool) (?V1 Bool) (?W1 Bool) (?X1 Bool) (?Y1 Bool) (?Z1 Bool) (?A2 Bool) (?B2 Bool) (?C2 Bool) (?D2 Bool) (?E2 Bool) (?F2 Bool) (?G2 Bool) (?H2 Bool) (?I2 Bool) (?J2 Bool) (?K2 Bool) (?L2 Bool) (?M2 Bool) (?N2 Bool) (?O2 Bool) (?P2 Bool) (?Q2 Bool) (?R2 Bool) (?S2 Bool) (?T2 Bool) (?U2 Bool) (?V2 Bool) (?W2 Bool) (?X2 Bool) (?Y2 Bool) (?Z2 Bool) (?A3 Bool) (?B3 Bool) (?C3 Bool) (?D3 Bool) (?E3 Bool) (?F3 Bool) (?G3 Bool) (?H3 Bool) (?I3 Bool) (?J3 Bool) (?K3 Bool) (?L3 Bool) (?M3 Bool) (?N3 Bool) (?O3 Bool) (?P3 Bool) (?Q3 Bool) (?R3 Bool) (?S3 Real) (?T3 Real) (?U3 Real) (?V3 Real) (?W3 Real) (?X3 Real) (?Y3 Real) (?Z3 Real) (?A4 Real) (?B4 Real) (?C4 Real) (?D4 Real) (?E4 Real) (?F4 Bool) (?G4 Bool) (?H4 Bool) (?I4 Bool) (?J4 Bool) (?K4 Bool) (?L4 Bool) (?M4 Bool) (?N4 Bool) (?O4 Bool) (?P4 Bool) (?Q4 Bool) (?R4 Bool) (?S4 Bool) (?T4 Bool) (?U4 Bool) (?V4 Bool) (?W4 Bool) (?X4 Bool) (?Y4 Bool) (?Z4 Bool) (?A5 Bool) (?B5 Bool) (?C5 Bool) (?D5 Bool) (?E5 Bool) (?F5 Bool) (?G5 Bool) (?H5 Bool) (?I5 Bool) (?J5 Real) (?K5 Bool) (?L5 Bool) (?M5 Bool) (?N5 Bool) (?O5 Bool) (?P5 Bool) (?Q5 Bool) (?R5 Real) )(let (($x833674 (|cp-rel-__UFO__0| ?A ?B ?C ?D ?E ?F ?G ?H ?I ?J ?K ?L ?M ?N ?O ?P ?Q ?R ?E4 ?F4 ?G4)))
(let (($x874236 (not ?H4)))
(let (($x267584 (or $x874236 (and ?O3 ?I4 ?R3) (and ?K3 ?J4 (not ?Q3)) (and ?T ?K4 ?V))))
(let (($x48990 (or $x874236 (and ?I4 (not ?J4) (not ?K4)) (and ?J4 (not ?I4) (not ?K4)) (and ?K4 (not ?I4) (not ?J4)))))
(let (($x349349 (or (not ?D5) (and ?A5 ?E5) (and ?W4 ?F5 ?C5) (and ?R4 ?G5 (not ?F4)) (and ?U4 ?H5 ?Z4))))
(let (($x360617 (or (not ?D5) (and ?E5 (not ?F5) (not ?G5) (not ?H5)) (and ?F5 (not ?E5) (not ?G5) (not ?H5)) (and ?G5 (not ?E5) (not ?F5) (not ?H5)) (and ?H5 (not ?E5) (not ?F5) (not ?G5)))))
(let (($x161597 (|cp-rel-bb.i| ?A ?B ?C ?D ?E ?F ?G ?H ?I ?J ?K ?L ?M ?N ?O ?P ?Q ?R)))
(let (($x646626 (and $x161597 (= ?R5 (ite ?Q5 ?R 0.0)) (= ?Q5 (= ?P 1.0)) (= ?Z4 (and ?O5 ?P5)) (= ?P5 (not ?F4)) (= ?O5 (or ?N5 ?F4)) (= ?N5 (or ?M5 ?G4)) (= ?M5 (not (= ?N ?E4))) (= ?T4 (or ?F4 ?G4)) (= ?G4 (= ?N 0.0)) (= ?P4 (or ?L5 ?K5)) (= ?L5 (not (= ?N ?E4))) (= ?K5 (= ?N 0.0)) (= ?J5 (ite ?F4 1.0 0.0)) (= ?F4 (= ?E4 0.0)) (= ?E4 (ite ?I5 ?Q 0.0)) (= ?I5 (= ?O 2.0)) (= ?R3 (= ?D4 0.0)) (= ?Q3 (= ?B 0.0)) (= ?M3 (= ?C4 0.0)) (= ?J3 (= ?C 0.0)) (= ?F3 (= ?B4 0.0)) (= ?C3 (= ?D 0.0)) (= ?Y2 (= ?A4 0.0)) (= ?V2 (= ?E 0.0)) (= ?R2 (= ?Z3 0.0)) (= ?O2 (= ?F 0.0)) (= ?K2 (= ?Y3 0.0)) (= ?H2 (= ?G 0.0)) (= ?D2 (= ?X3 0.0)) (= ?A2 (= ?H 0.0)) (= ?W1 (= ?W3 0.0)) (= ?T1 (= ?I 0.0)) (= ?P1 (= ?V3 0.0)) (= ?M1 (= ?J 0.0)) (= ?I1 (= ?U3 0.0)) (= ?F1 (= ?K 0.0)) (= ?B1 (= ?T3 0.0)) (= ?Y (= ?L 0.0)) (= ?S3 (+ 1.0 ?A)) (= ?V (not (<= ?A 3.0))) (= ?D5 true) $x360617 $x349349 (or (not ?A5) ?B5) (or (not ?A5) (and ?W4 ?B5 (not ?C5))) (or (not ?W4) (and ?X4 (not ?Y4)) (and ?Y4 (not ?X4))) (or (not ?W4) (and ?R4 ?X4 ?F4) (and ?U4 ?Y4 (not ?Z4))) (or (not ?U4) ?V4) (or (not ?U4) (and ?N4 ?V4 (not ?T4))) (or (not ?R4) ?S4) (or (not ?R4) (and ?N4 ?S4 ?T4)) (or (not ?N4) (and ?O4 (not ?Q4)) (and ?Q4 (not ?O4))) (or (not ?N4) (and ?L4 ?O4 (not ?P4)) (and ?H4 ?Q4 ?F4)) (or (not ?L4) ?M4) (or (not ?L4) (and ?H4 ?M4 (not ?F4))) $x48990 $x267584 (or (not ?O3) ?P3) (or (not ?O3) (and ?K3 ?P3 ?Q3)) (or (not ?K3) (and ?L3 (not ?N3)) (and ?N3 (not ?L3))) (or (not ?K3) (and ?H3 ?L3 ?M3) (and ?D3 ?N3 (not ?J3))) (or (not ?H3) ?I3) (or (not ?H3) (and ?D3 ?I3 ?J3)) (or (not ?D3) (and ?E3 (not ?G3)) (and ?G3 (not ?E3))) (or (not ?D3) (and ?A3 ?E3 ?F3) (and ?W2 ?G3 (not ?C3))) (or (not ?A3) ?B3) (or (not ?A3) (and ?W2 ?B3 ?C3)) (or (not ?W2) (and ?X2 (not ?Z2)) (and ?Z2 (not ?X2))) (or (not ?W2) (and ?T2 ?X2 ?Y2) (and ?P2 ?Z2 (not ?V2))) (or (not ?T2) ?U2) (or (not ?T2) (and ?P2 ?U2 ?V2)) (or (not ?P2) (and ?Q2 (not ?S2)) (and ?S2 (not ?Q2))) (or (not ?P2) (and ?M2 ?Q2 ?R2) (and ?I2 ?S2 (not ?O2))) (or (not ?M2) ?N2) (or (not ?M2) (and ?I2 ?N2 ?O2)) (or (not ?I2) (and ?J2 (not ?L2)) (and ?L2 (not ?J2))) (or (not ?I2) (and ?F2 ?J2 ?K2) (and ?B2 ?L2 (not ?H2))) (or (not ?F2) ?G2) (or (not ?F2) (and ?B2 ?G2 ?H2)) (or (not ?B2) (and ?C2 (not ?E2)) (and ?E2 (not ?C2))) (or (not ?B2) (and ?Y1 ?C2 ?D2) (and ?U1 ?E2 (not ?A2))) (or (not ?Y1) ?Z1) (or (not ?Y1) (and ?U1 ?Z1 ?A2)) (or (not ?U1) (and ?V1 (not ?X1)) (and ?X1 (not ?V1))) (or (not ?U1) (and ?R1 ?V1 ?W1) (and ?N1 ?X1 (not ?T1))) (or (not ?R1) ?S1) (or (not ?R1) (and ?N1 ?S1 ?T1)) (or (not ?N1) (and ?O1 (not ?Q1)) (and ?Q1 (not ?O1))) (or (not ?N1) (and ?K1 ?O1 ?P1) (and ?G1 ?Q1 (not ?M1))) (or (not ?K1) ?L1) (or (not ?K1) (and ?G1 ?L1 ?M1)) (or (not ?G1) (and ?H1 (not ?J1)) (and ?J1 (not ?H1))) (or (not ?G1) (and ?D1 ?H1 ?I1) (and ?Z ?J1 (not ?F1))) (or (not ?D1) ?E1) (or (not ?D1) (and ?Z ?E1 ?F1)) (or (not ?Z) (and ?A1 (not ?C1)) (and ?C1 (not ?A1))) (or (not ?Z) (and ?W ?A1 ?B1) (and ?S ?C1 (not ?Y))) (or (not ?W) ?X) (or (not ?W) (and ?S ?X ?Y)) (or (not ?S) ?U) (or (not ?S) (and ?T ?U (not ?V))) (= ?C5 (= ?R5 0.0)))))
(=> $x646626 $x833674))))))))))
)
(assert (forall ((?A Real) (?B Bool) (?C Bool) (?D Real) (?E Real) (?F Real) (?G Real) (?H Real) (?I Real) (?J Real) (?K Real) (?L Real) (?M Real) (?N Real) (?O Real) (?P Real) (?Q Real) (?R Real) (?S Real) (?T Real) (?U Real) (?V Bool) )(let (($x873416 (|cp-rel-__UFO__0| ?D ?E ?F ?G ?H ?I ?J ?K ?L ?M ?N ?O ?P ?Q ?R ?S ?T ?U ?A ?B ?C)))
(=> (and $x873416 (= ?V true)) $x873416)))
)
(assert (forall ((?A Real) (?B Real) (?C Real) (?D Real) (?E Real) (?F Real) (?G Real) (?H Real) (?I Real) (?J Real) (?K Real) (?L Real) (?M Real) (?N Real) (?O Real) (?P Real) (?Q Real) (?R Real) (?S Bool) (?T Bool) (?U Bool) (?V Bool) (?W Bool) (?X Bool) (?Y Bool) (?Z Bool) (?A1 Bool) (?B1 Bool) (?C1 Bool) (?D1 Bool) (?E1 Bool) (?F1 Bool) (?G1 Bool) (?H1 Bool) (?I1 Bool) (?J1 Bool) (?K1 Bool) (?L1 Bool) (?M1 Bool) (?N1 Bool) (?O1 Bool) (?P1 Bool) (?Q1 Bool) (?R1 Bool) (?S1 Bool) (?T1 Bool) (?U1 Bool) (?V1 Bool) (?W1 Bool) (?X1 Bool) (?Y1 Bool) (?Z1 Bool) (?A2 Bool) (?B2 Bool) (?C2 Bool) (?D2 Bool) (?E2 Bool) (?F2 Bool) (?G2 Bool) (?H2 Bool) (?I2 Bool) (?J2 Bool) (?K2 Bool) (?L2 Bool) (?M2 Bool) (?N2 Bool) (?O2 Bool) (?P2 Bool) (?Q2 Bool) (?R2 Bool) (?S2 Bool) (?T2 Bool) (?U2 Bool) (?V2 Bool) (?W2 Bool) (?X2 Bool) (?Y2 Bool) (?Z2 Bool) (?A3 Bool) (?B3 Bool) (?C3 Bool) (?D3 Bool) (?E3 Bool) (?F3 Bool) (?G3 Bool) (?H3 Bool) (?I3 Bool) (?J3 Bool) (?K3 Bool) (?L3 Bool) (?M3 Bool) (?N3 Bool) (?O3 Bool) (?P3 Bool) (?Q3 Bool) (?R3 Bool) (?S3 Real) (?T3 Real) (?U3 Real) (?V3 Real) (?W3 Real) (?X3 Real) (?Y3 Real) (?Z3 Real) (?A4 Real) (?B4 Real) (?C4 Real) (?D4 Real) (?E4 Real) (?F4 Bool) (?G4 Bool) (?H4 Bool) (?I4 Bool) (?J4 Bool) (?K4 Bool) (?L4 Bool) (?M4 Bool) (?N4 Bool) (?O4 Real) (?P4 Bool) (?Q4 Bool) )(let (($x845176 (not ?G4)))
(let (($x16510 (or $x845176 (and ?O3 ?H4 ?R3) (and ?K3 ?I4 (not ?Q3)) (and ?T ?J4 ?V))))
(let (($x330555 (or $x845176 (and ?H4 (not ?I4) (not ?J4)) (and ?I4 (not ?H4) (not ?J4)) (and ?J4 (not ?H4) (not ?I4)))))
(let (($x526462 (|cp-rel-bb.i| ?A ?B ?C ?D ?E ?F ?G ?H ?I ?J ?K ?L ?M ?N ?O ?P ?Q ?R)))
(let (($x436789 (and $x526462 (= ?Q4 (not (= ?N ?E4))) (= ?P4 (= ?N 0.0)) (= ?O4 (ite ?F4 1.0 0.0)) (= ?F4 (= ?E4 0.0)) (= ?E4 (ite ?N4 ?Q 0.0)) (= ?N4 (= ?O 2.0)) (= ?R3 (= ?D4 0.0)) (= ?Q3 (= ?B 0.0)) (= ?M3 (= ?C4 0.0)) (= ?J3 (= ?C 0.0)) (= ?F3 (= ?B4 0.0)) (= ?C3 (= ?D 0.0)) (= ?Y2 (= ?A4 0.0)) (= ?V2 (= ?E 0.0)) (= ?R2 (= ?Z3 0.0)) (= ?O2 (= ?F 0.0)) (= ?K2 (= ?Y3 0.0)) (= ?H2 (= ?G 0.0)) (= ?D2 (= ?X3 0.0)) (= ?A2 (= ?H 0.0)) (= ?W1 (= ?W3 0.0)) (= ?T1 (= ?I 0.0)) (= ?P1 (= ?V3 0.0)) (= ?M1 (= ?J 0.0)) (= ?I1 (= ?U3 0.0)) (= ?F1 (= ?K 0.0)) (= ?B1 (= ?T3 0.0)) (= ?Y (= ?L 0.0)) (= ?S3 (+ 1.0 ?A)) (= ?V (not (<= ?A 3.0))) (= ?M4 true) (= ?K4 true) (or (not ?K4) ?L4) (or (not ?K4) (and ?G4 ?L4 (not ?F4))) $x330555 $x16510 (or (not ?O3) ?P3) (or (not ?O3) (and ?K3 ?P3 ?Q3)) (or (not ?K3) (and ?L3 (not ?N3)) (and ?N3 (not ?L3))) (or (not ?K3) (and ?H3 ?L3 ?M3) (and ?D3 ?N3 (not ?J3))) (or (not ?H3) ?I3) (or (not ?H3) (and ?D3 ?I3 ?J3)) (or (not ?D3) (and ?E3 (not ?G3)) (and ?G3 (not ?E3))) (or (not ?D3) (and ?A3 ?E3 ?F3) (and ?W2 ?G3 (not ?C3))) (or (not ?A3) ?B3) (or (not ?A3) (and ?W2 ?B3 ?C3)) (or (not ?W2) (and ?X2 (not ?Z2)) (and ?Z2 (not ?X2))) (or (not ?W2) (and ?T2 ?X2 ?Y2) (and ?P2 ?Z2 (not ?V2))) (or (not ?T2) ?U2) (or (not ?T2) (and ?P2 ?U2 ?V2)) (or (not ?P2) (and ?Q2 (not ?S2)) (and ?S2 (not ?Q2))) (or (not ?P2) (and ?M2 ?Q2 ?R2) (and ?I2 ?S2 (not ?O2))) (or (not ?M2) ?N2) (or (not ?M2) (and ?I2 ?N2 ?O2)) (or (not ?I2) (and ?J2 (not ?L2)) (and ?L2 (not ?J2))) (or (not ?I2) (and ?F2 ?J2 ?K2) (and ?B2 ?L2 (not ?H2))) (or (not ?F2) ?G2) (or (not ?F2) (and ?B2 ?G2 ?H2)) (or (not ?B2) (and ?C2 (not ?E2)) (and ?E2 (not ?C2))) (or (not ?B2) (and ?Y1 ?C2 ?D2) (and ?U1 ?E2 (not ?A2))) (or (not ?Y1) ?Z1) (or (not ?Y1) (and ?U1 ?Z1 ?A2)) (or (not ?U1) (and ?V1 (not ?X1)) (and ?X1 (not ?V1))) (or (not ?U1) (and ?R1 ?V1 ?W1) (and ?N1 ?X1 (not ?T1))) (or (not ?R1) ?S1) (or (not ?R1) (and ?N1 ?S1 ?T1)) (or (not ?N1) (and ?O1 (not ?Q1)) (and ?Q1 (not ?O1))) (or (not ?N1) (and ?K1 ?O1 ?P1) (and ?G1 ?Q1 (not ?M1))) (or (not ?K1) ?L1) (or (not ?K1) (and ?G1 ?L1 ?M1)) (or (not ?G1) (and ?H1 (not ?J1)) (and ?J1 (not ?H1))) (or (not ?G1) (and ?D1 ?H1 ?I1) (and ?Z ?J1 (not ?F1))) (or (not ?D1) ?E1) (or (not ?D1) (and ?Z ?E1 ?F1)) (or (not ?Z) (and ?A1 (not ?C1)) (and ?C1 (not ?A1))) (or (not ?Z) (and ?W ?A1 ?B1) (and ?S ?C1 (not ?Y))) (or (not ?W) ?X) (or (not ?W) (and ?S ?X ?Y)) (or (not ?S) ?U) (or (not ?S) (and ?T ?U (not ?V))) (= ?M4 (or ?Q4 ?P4)))))
(=> $x436789 |cp-rel-bb1.i.i6.i.i.i.i.i.i.i|)))))))
)
(assert (not cp-rel-bb1.i.i6.i.i.i.i.i.i.i))
(check-sat)
